0 28 26 27 13 14 15 16 17 56 57 59 58 48 49 50 44 45 46 47 55 30 34 31 35 33 29 36 32 2 73 18 22 19 23 25 21 24 20 74 3 68 39 38 37 43 42 41 40 52 53 54 51 6 7 4 5 11 10 9 8 12 63 62 61 60 67 1 66 65 64 70 71 72 69 0 